p edge 200 1534
n 1 2
n 2 3
n 3 4
n 4 5
n 5 6
n 6 7
n 7 8
n 8 9
n 9 10
n 10 11
n 11 12
n 12 13
n 13 14
n 14 15
n 15 16
n 16 17
n 17 18
n 18 19
n 19 20
n 20 21
n 21 22
n 22 23
n 23 24
n 24 25
n 25 26
n 26 27
n 27 28
n 28 29
n 29 30
n 30 31
n 31 32
n 32 33
n 33 34
n 34 35
n 35 36
n 36 37
n 37 38
n 38 39
n 39 40
n 40 41
n 41 42
n 42 43
n 43 44
n 44 45
n 45 46
n 46 47
n 47 48
n 48 49
n 49 50
n 50 51
n 51 52
n 52 53
n 53 54
n 54 55
n 55 56
n 56 57
n 57 58
n 58 59
n 59 60
n 60 61
n 61 62
n 62 63
n 63 64
n 64 65
n 65 66
n 66 67
n 67 68
n 68 69
n 69 70
n 70 71
n 71 72
n 72 73
n 73 74
n 74 75
n 75 76
n 76 77
n 77 78
n 78 79
n 79 80
n 80 81
n 81 82
n 82 83
n 83 84
n 84 85
n 85 86
n 86 87
n 87 88
n 88 89
n 89 90
n 90 91
n 91 92
n 92 93
n 93 94
n 94 95
n 95 96
n 96 97
n 97 98
n 98 99
n 99 100
n 100 101
n 101 102
n 102 103
n 103 104
n 104 105
n 105 106
n 106 107
n 107 108
n 108 109
n 109 110
n 110 111
n 111 112
n 112 113
n 113 114
n 114 115
n 115 116
n 116 117
n 117 118
n 118 119
n 119 120
n 120 121
n 121 122
n 122 123
n 123 124
n 124 125
n 125 126
n 126 127
n 127 128
n 128 129
n 129 130
n 130 131
n 131 132
n 132 133
n 133 134
n 134 135
n 135 136
n 136 137
n 137 138
n 138 139
n 139 140
n 140 141
n 141 142
n 142 143
n 143 144
n 144 145
n 145 146
n 146 147
n 147 148
n 148 149
n 149 150
n 150 151
n 151 152
n 152 153
n 153 154
n 154 155
n 155 156
n 156 157
n 157 158
n 158 159
n 159 160
n 160 161
n 161 162
n 162 163
n 163 164
n 164 165
n 165 166
n 166 167
n 167 168
n 168 169
n 169 170
n 170 171
n 171 172
n 172 173
n 173 174
n 174 175
n 175 176
n 176 177
n 177 178
n 178 179
n 179 180
n 180 181
n 181 182
n 182 183
n 183 184
n 184 185
n 185 186
n 186 187
n 187 188
n 188 189
n 189 190
n 190 191
n 191 192
n 192 193
n 193 194
n 194 195
n 195 196
n 196 197
n 197 198
n 198 199
n 199 200
n 200 1
e 1 2
e 1 37
e 1 38
e 1 39
e 1 74
e 1 75
e 1 76
e 1 111
e 1 112
e 1 113
e 1 148
e 1 149
e 1 150
e 1 185
e 1 186
e 1 187
e 2 3
e 2 38
e 2 39
e 2 40
e 2 75
e 2 76
e 2 77
e 2 112
e 2 113
e 2 114
e 2 149
e 2 150
e 2 151
e 2 186
e 2 187
e 2 188
e 3 4
e 3 39
e 3 40
e 3 41
e 3 76
e 3 77
e 3 78
e 3 113
e 3 114
e 3 115
e 3 150
e 3 151
e 3 152
e 3 187
e 3 188
e 3 189
e 4 5
e 4 40
e 4 41
e 4 42
e 4 77
e 4 78
e 4 79
e 4 114
e 4 115
e 4 116
e 4 151
e 4 152
e 4 153
e 4 188
e 4 189
e 4 190
e 5 6
e 5 41
e 5 42
e 5 43
e 5 78
e 5 79
e 5 80
e 5 115
e 5 116
e 5 117
e 5 152
e 5 153
e 5 154
e 5 189
e 5 190
e 5 191
e 6 7
e 6 42
e 6 43
e 6 44
e 6 79
e 6 80
e 6 81
e 6 116
e 6 117
e 6 118
e 6 153
e 6 154
e 6 155
e 6 190
e 6 191
e 6 192
e 7 8
e 7 43
e 7 44
e 7 45
e 7 80
e 7 81
e 7 82
e 7 117
e 7 118
e 7 119
e 7 154
e 7 155
e 7 156
e 7 191
e 7 192
e 7 193
e 8 9
e 8 44
e 8 45
e 8 46
e 8 81
e 8 82
e 8 83
e 8 118
e 8 119
e 8 120
e 8 155
e 8 156
e 8 157
e 8 192
e 8 193
e 8 194
e 9 10
e 9 45
e 9 46
e 9 47
e 9 82
e 9 83
e 9 84
e 9 119
e 9 120
e 9 121
e 9 156
e 9 157
e 9 158
e 9 193
e 9 194
e 9 195
e 10 11
e 10 46
e 10 47
e 10 48
e 10 83
e 10 84
e 10 85
e 10 120
e 10 121
e 10 122
e 10 157
e 10 158
e 10 159
e 10 194
e 10 195
e 10 196
e 11 12
e 11 47
e 11 48
e 11 49
e 11 84
e 11 85
e 11 86
e 11 121
e 11 122
e 11 123
e 11 158
e 11 159
e 11 160
e 11 195
e 11 196
e 11 197
e 12 13
e 12 48
e 12 49
e 12 50
e 12 85
e 12 86
e 12 87
e 12 122
e 12 123
e 12 124
e 12 159
e 12 160
e 12 161
e 12 196
e 12 197
e 12 198
e 13 14
e 13 49
e 13 50
e 13 51
e 13 86
e 13 87
e 13 88
e 13 123
e 13 124
e 13 125
e 13 160
e 13 161
e 13 162
e 13 197
e 13 198
e 13 199
e 14 15
e 14 50
e 14 51
e 14 52
e 14 87
e 14 88
e 14 89
e 14 124
e 14 125
e 14 126
e 14 161
e 14 162
e 14 163
e 14 198
e 14 199
e 14 200
e 15 16
e 15 51
e 15 52
e 15 53
e 15 88
e 15 89
e 15 90
e 15 125
e 15 126
e 15 127
e 15 162
e 15 163
e 15 164
e 15 199
e 15 200
e 16 17
e 16 52
e 16 53
e 16 54
e 16 89
e 16 90
e 16 91
e 16 126
e 16 127
e 16 128
e 16 163
e 16 164
e 16 165
e 16 200
e 17 18
e 17 53
e 17 54
e 17 55
e 17 90
e 17 91
e 17 92
e 17 127
e 17 128
e 17 129
e 17 164
e 17 165
e 17 166
e 18 19
e 18 54
e 18 55
e 18 56
e 18 91
e 18 92
e 18 93
e 18 128
e 18 129
e 18 130
e 18 165
e 18 166
e 18 167
e 19 20
e 19 55
e 19 56
e 19 57
e 19 92
e 19 93
e 19 94
e 19 129
e 19 130
e 19 131
e 19 166
e 19 167
e 19 168
e 20 21
e 20 56
e 20 57
e 20 58
e 20 93
e 20 94
e 20 95
e 20 130
e 20 131
e 20 132
e 20 167
e 20 168
e 20 169
e 21 22
e 21 57
e 21 58
e 21 59
e 21 94
e 21 95
e 21 96
e 21 131
e 21 132
e 21 133
e 21 168
e 21 169
e 21 170
e 22 23
e 22 58
e 22 59
e 22 60
e 22 95
e 22 96
e 22 97
e 22 132
e 22 133
e 22 134
e 22 169
e 22 170
e 22 171
e 23 24
e 23 59
e 23 60
e 23 61
e 23 96
e 23 97
e 23 98
e 23 133
e 23 134
e 23 135
e 23 170
e 23 171
e 23 172
e 24 25
e 24 60
e 24 61
e 24 62
e 24 97
e 24 98
e 24 99
e 24 134
e 24 135
e 24 136
e 24 171
e 24 172
e 24 173
e 25 26
e 25 61
e 25 62
e 25 63
e 25 98
e 25 99
e 25 100
e 25 135
e 25 136
e 25 137
e 25 172
e 25 173
e 25 174
e 26 27
e 26 62
e 26 63
e 26 64
e 26 99
e 26 100
e 26 101
e 26 136
e 26 137
e 26 138
e 26 173
e 26 174
e 26 175
e 27 28
e 27 63
e 27 64
e 27 65
e 27 100
e 27 101
e 27 102
e 27 137
e 27 138
e 27 139
e 27 174
e 27 175
e 27 176
e 28 29
e 28 64
e 28 65
e 28 66
e 28 101
e 28 102
e 28 103
e 28 138
e 28 139
e 28 140
e 28 175
e 28 176
e 28 177
e 29 30
e 29 65
e 29 66
e 29 67
e 29 102
e 29 103
e 29 104
e 29 139
e 29 140
e 29 141
e 29 176
e 29 177
e 29 178
e 30 31
e 30 66
e 30 67
e 30 68
e 30 103
e 30 104
e 30 105
e 30 140
e 30 141
e 30 142
e 30 177
e 30 178
e 30 179
e 31 32
e 31 67
e 31 68
e 31 69
e 31 104
e 31 105
e 31 106
e 31 141
e 31 142
e 31 143
e 31 178
e 31 179
e 31 180
e 32 33
e 32 68
e 32 69
e 32 70
e 32 105
e 32 106
e 32 107
e 32 142
e 32 143
e 32 144
e 32 179
e 32 180
e 32 181
e 33 34
e 33 69
e 33 70
e 33 71
e 33 106
e 33 107
e 33 108
e 33 143
e 33 144
e 33 145
e 33 180
e 33 181
e 33 182
e 34 35
e 34 70
e 34 71
e 34 72
e 34 107
e 34 108
e 34 109
e 34 144
e 34 145
e 34 146
e 34 181
e 34 182
e 34 183
e 35 36
e 35 71
e 35 72
e 35 73
e 35 108
e 35 109
e 35 110
e 35 145
e 35 146
e 35 147
e 35 182
e 35 183
e 35 184
e 36 37
e 36 72
e 36 73
e 36 74
e 36 109
e 36 110
e 36 111
e 36 146
e 36 147
e 36 148
e 36 183
e 36 184
e 36 185
e 37 38
e 37 73
e 37 74
e 37 75
e 37 110
e 37 111
e 37 112
e 37 147
e 37 148
e 37 149
e 37 184
e 37 185
e 37 186
e 38 39
e 38 74
e 38 75
e 38 76
e 38 111
e 38 112
e 38 113
e 38 148
e 38 149
e 38 150
e 38 185
e 38 186
e 38 187
e 39 40
e 39 75
e 39 76
e 39 77
e 39 112
e 39 113
e 39 114
e 39 149
e 39 150
e 39 151
e 39 186
e 39 187
e 39 188
e 40 41
e 40 76
e 40 77
e 40 78
e 40 113
e 40 114
e 40 115
e 40 150
e 40 151
e 40 152
e 40 187
e 40 188
e 40 189
e 41 42
e 41 77
e 41 78
e 41 79
e 41 114
e 41 115
e 41 116
e 41 151
e 41 152
e 41 153
e 41 188
e 41 189
e 41 190
e 42 43
e 42 78
e 42 79
e 42 80
e 42 115
e 42 116
e 42 117
e 42 152
e 42 153
e 42 154
e 42 189
e 42 190
e 42 191
e 43 44
e 43 79
e 43 80
e 43 81
e 43 116
e 43 117
e 43 118
e 43 153
e 43 154
e 43 155
e 43 190
e 43 191
e 43 192
e 44 45
e 44 80
e 44 81
e 44 82
e 44 117
e 44 118
e 44 119
e 44 154
e 44 155
e 44 156
e 44 191
e 44 192
e 44 193
e 45 46
e 45 81
e 45 82
e 45 83
e 45 118
e 45 119
e 45 120
e 45 155
e 45 156
e 45 157
e 45 192
e 45 193
e 45 194
e 46 47
e 46 82
e 46 83
e 46 84
e 46 119
e 46 120
e 46 121
e 46 156
e 46 157
e 46 158
e 46 193
e 46 194
e 46 195
e 47 48
e 47 83
e 47 84
e 47 85
e 47 120
e 47 121
e 47 122
e 47 157
e 47 158
e 47 159
e 47 194
e 47 195
e 47 196
e 48 49
e 48 84
e 48 85
e 48 86
e 48 121
e 48 122
e 48 123
e 48 158
e 48 159
e 48 160
e 48 195
e 48 196
e 48 197
e 49 50
e 49 85
e 49 86
e 49 87
e 49 122
e 49 123
e 49 124
e 49 159
e 49 160
e 49 161
e 49 196
e 49 197
e 49 198
e 50 51
e 50 86
e 50 87
e 50 88
e 50 123
e 50 124
e 50 125
e 50 160
e 50 161
e 50 162
e 50 197
e 50 198
e 50 199
e 51 52
e 51 87
e 51 88
e 51 89
e 51 124
e 51 125
e 51 126
e 51 161
e 51 162
e 51 163
e 51 198
e 51 199
e 51 200
e 52 53
e 52 88
e 52 89
e 52 90
e 52 125
e 52 126
e 52 127
e 52 162
e 52 163
e 52 164
e 52 199
e 52 200
e 53 54
e 53 89
e 53 90
e 53 91
e 53 126
e 53 127
e 53 128
e 53 163
e 53 164
e 53 165
e 53 200
e 54 55
e 54 90
e 54 91
e 54 92
e 54 127
e 54 128
e 54 129
e 54 164
e 54 165
e 54 166
e 55 56
e 55 91
e 55 92
e 55 93
e 55 128
e 55 129
e 55 130
e 55 165
e 55 166
e 55 167
e 56 57
e 56 92
e 56 93
e 56 94
e 56 129
e 56 130
e 56 131
e 56 166
e 56 167
e 56 168
e 57 58
e 57 93
e 57 94
e 57 95
e 57 130
e 57 131
e 57 132
e 57 167
e 57 168
e 57 169
e 58 59
e 58 94
e 58 95
e 58 96
e 58 131
e 58 132
e 58 133
e 58 168
e 58 169
e 58 170
e 59 60
e 59 95
e 59 96
e 59 97
e 59 132
e 59 133
e 59 134
e 59 169
e 59 170
e 59 171
e 60 61
e 60 96
e 60 97
e 60 98
e 60 133
e 60 134
e 60 135
e 60 170
e 60 171
e 60 172
e 61 62
e 61 97
e 61 98
e 61 99
e 61 134
e 61 135
e 61 136
e 61 171
e 61 172
e 61 173
e 62 63
e 62 98
e 62 99
e 62 100
e 62 135
e 62 136
e 62 137
e 62 172
e 62 173
e 62 174
e 63 64
e 63 99
e 63 100
e 63 101
e 63 136
e 63 137
e 63 138
e 63 173
e 63 174
e 63 175
e 64 65
e 64 100
e 64 101
e 64 102
e 64 137
e 64 138
e 64 139
e 64 174
e 64 175
e 64 176
e 65 66
e 65 101
e 65 102
e 65 103
e 65 138
e 65 139
e 65 140
e 65 175
e 65 176
e 65 177
e 66 67
e 66 102
e 66 103
e 66 104
e 66 139
e 66 140
e 66 141
e 66 176
e 66 177
e 66 178
e 67 68
e 67 103
e 67 104
e 67 105
e 67 140
e 67 141
e 67 142
e 67 177
e 67 178
e 67 179
e 68 69
e 68 104
e 68 105
e 68 106
e 68 141
e 68 142
e 68 143
e 68 178
e 68 179
e 68 180
e 69 70
e 69 105
e 69 106
e 69 107
e 69 142
e 69 143
e 69 144
e 69 179
e 69 180
e 69 181
e 70 71
e 70 106
e 70 107
e 70 108
e 70 143
e 70 144
e 70 145
e 70 180
e 70 181
e 70 182
e 71 72
e 71 107
e 71 108
e 71 109
e 71 144
e 71 145
e 71 146
e 71 181
e 71 182
e 71 183
e 72 73
e 72 108
e 72 109
e 72 110
e 72 145
e 72 146
e 72 147
e 72 182
e 72 183
e 72 184
e 73 74
e 73 109
e 73 110
e 73 111
e 73 146
e 73 147
e 73 148
e 73 183
e 73 184
e 73 185
e 74 75
e 74 110
e 74 111
e 74 112
e 74 147
e 74 148
e 74 149
e 74 184
e 74 185
e 74 186
e 75 76
e 75 111
e 75 112
e 75 113
e 75 148
e 75 149
e 75 150
e 75 185
e 75 186
e 75 187
e 76 77
e 76 112
e 76 113
e 76 114
e 76 149
e 76 150
e 76 151
e 76 186
e 76 187
e 76 188
e 77 78
e 77 113
e 77 114
e 77 115
e 77 150
e 77 151
e 77 152
e 77 187
e 77 188
e 77 189
e 78 79
e 78 114
e 78 115
e 78 116
e 78 151
e 78 152
e 78 153
e 78 188
e 78 189
e 78 190
e 79 80
e 79 115
e 79 116
e 79 117
e 79 152
e 79 153
e 79 154
e 79 189
e 79 190
e 79 191
e 80 81
e 80 116
e 80 117
e 80 118
e 80 153
e 80 154
e 80 155
e 80 190
e 80 191
e 80 192
e 81 82
e 81 117
e 81 118
e 81 119
e 81 154
e 81 155
e 81 156
e 81 191
e 81 192
e 81 193
e 82 83
e 82 118
e 82 119
e 82 120
e 82 155
e 82 156
e 82 157
e 82 192
e 82 193
e 82 194
e 83 84
e 83 119
e 83 120
e 83 121
e 83 156
e 83 157
e 83 158
e 83 193
e 83 194
e 83 195
e 84 85
e 84 120
e 84 121
e 84 122
e 84 157
e 84 158
e 84 159
e 84 194
e 84 195
e 84 196
e 85 86
e 85 121
e 85 122
e 85 123
e 85 158
e 85 159
e 85 160
e 85 195
e 85 196
e 85 197
e 86 87
e 86 122
e 86 123
e 86 124
e 86 159
e 86 160
e 86 161
e 86 196
e 86 197
e 86 198
e 87 88
e 87 123
e 87 124
e 87 125
e 87 160
e 87 161
e 87 162
e 87 197
e 87 198
e 87 199
e 88 89
e 88 124
e 88 125
e 88 126
e 88 161
e 88 162
e 88 163
e 88 198
e 88 199
e 88 200
e 89 90
e 89 125
e 89 126
e 89 127
e 89 162
e 89 163
e 89 164
e 89 199
e 89 200
e 90 91
e 90 126
e 90 127
e 90 128
e 90 163
e 90 164
e 90 165
e 90 200
e 91 92
e 91 127
e 91 128
e 91 129
e 91 164
e 91 165
e 91 166
e 92 93
e 92 128
e 92 129
e 92 130
e 92 165
e 92 166
e 92 167
e 93 94
e 93 129
e 93 130
e 93 131
e 93 166
e 93 167
e 93 168
e 94 95
e 94 130
e 94 131
e 94 132
e 94 167
e 94 168
e 94 169
e 95 96
e 95 131
e 95 132
e 95 133
e 95 168
e 95 169
e 95 170
e 96 97
e 96 132
e 96 133
e 96 134
e 96 169
e 96 170
e 96 171
e 97 98
e 97 133
e 97 134
e 97 135
e 97 170
e 97 171
e 97 172
e 98 99
e 98 134
e 98 135
e 98 136
e 98 171
e 98 172
e 98 173
e 99 100
e 99 135
e 99 136
e 99 137
e 99 172
e 99 173
e 99 174
e 100 101
e 100 136
e 100 137
e 100 138
e 100 173
e 100 174
e 100 175
e 101 102
e 101 137
e 101 138
e 101 139
e 101 174
e 101 175
e 101 176
e 102 103
e 102 138
e 102 139
e 102 140
e 102 175
e 102 176
e 102 177
e 103 104
e 103 139
e 103 140
e 103 141
e 103 176
e 103 177
e 103 178
e 104 105
e 104 140
e 104 141
e 104 142
e 104 177
e 104 178
e 104 179
e 105 106
e 105 141
e 105 142
e 105 143
e 105 178
e 105 179
e 105 180
e 106 107
e 106 142
e 106 143
e 106 144
e 106 179
e 106 180
e 106 181
e 107 108
e 107 143
e 107 144
e 107 145
e 107 180
e 107 181
e 107 182
e 108 109
e 108 144
e 108 145
e 108 146
e 108 181
e 108 182
e 108 183
e 109 110
e 109 145
e 109 146
e 109 147
e 109 182
e 109 183
e 109 184
e 110 111
e 110 146
e 110 147
e 110 148
e 110 183
e 110 184
e 110 185
e 111 112
e 111 147
e 111 148
e 111 149
e 111 184
e 111 185
e 111 186
e 112 113
e 112 148
e 112 149
e 112 150
e 112 185
e 112 186
e 112 187
e 113 114
e 113 149
e 113 150
e 113 151
e 113 186
e 113 187
e 113 188
e 114 115
e 114 150
e 114 151
e 114 152
e 114 187
e 114 188
e 114 189
e 115 116
e 115 151
e 115 152
e 115 153
e 115 188
e 115 189
e 115 190
e 116 117
e 116 152
e 116 153
e 116 154
e 116 189
e 116 190
e 116 191
e 117 118
e 117 153
e 117 154
e 117 155
e 117 190
e 117 191
e 117 192
e 118 119
e 118 154
e 118 155
e 118 156
e 118 191
e 118 192
e 118 193
e 119 120
e 119 155
e 119 156
e 119 157
e 119 192
e 119 193
e 119 194
e 120 121
e 120 156
e 120 157
e 120 158
e 120 193
e 120 194
e 120 195
e 121 122
e 121 157
e 121 158
e 121 159
e 121 194
e 121 195
e 121 196
e 122 123
e 122 158
e 122 159
e 122 160
e 122 195
e 122 196
e 122 197
e 123 124
e 123 159
e 123 160
e 123 161
e 123 196
e 123 197
e 123 198
e 124 125
e 124 160
e 124 161
e 124 162
e 124 197
e 124 198
e 124 199
e 125 126
e 125 161
e 125 162
e 125 163
e 125 198
e 125 199
e 125 200
e 126 127
e 126 162
e 126 163
e 126 164
e 126 199
e 126 200
e 127 128
e 127 163
e 127 164
e 127 165
e 127 200
e 128 129
e 128 164
e 128 165
e 128 166
e 129 130
e 129 165
e 129 166
e 129 167
e 130 131
e 130 166
e 130 167
e 130 168
e 131 132
e 131 167
e 131 168
e 131 169
e 132 133
e 132 168
e 132 169
e 132 170
e 133 134
e 133 169
e 133 170
e 133 171
e 134 135
e 134 170
e 134 171
e 134 172
e 135 136
e 135 171
e 135 172
e 135 173
e 136 137
e 136 172
e 136 173
e 136 174
e 137 138
e 137 173
e 137 174
e 137 175
e 138 139
e 138 174
e 138 175
e 138 176
e 139 140
e 139 175
e 139 176
e 139 177
e 140 141
e 140 176
e 140 177
e 140 178
e 141 142
e 141 177
e 141 178
e 141 179
e 142 143
e 142 178
e 142 179
e 142 180
e 143 144
e 143 179
e 143 180
e 143 181
e 144 145
e 144 180
e 144 181
e 144 182
e 145 146
e 145 181
e 145 182
e 145 183
e 146 147
e 146 182
e 146 183
e 146 184
e 147 148
e 147 183
e 147 184
e 147 185
e 148 149
e 148 184
e 148 185
e 148 186
e 149 150
e 149 185
e 149 186
e 149 187
e 150 151
e 150 186
e 150 187
e 150 188
e 151 152
e 151 187
e 151 188
e 151 189
e 152 153
e 152 188
e 152 189
e 152 190
e 153 154
e 153 189
e 153 190
e 153 191
e 154 155
e 154 190
e 154 191
e 154 192
e 155 156
e 155 191
e 155 192
e 155 193
e 156 157
e 156 192
e 156 193
e 156 194
e 157 158
e 157 193
e 157 194
e 157 195
e 158 159
e 158 194
e 158 195
e 158 196
e 159 160
e 159 195
e 159 196
e 159 197
e 160 161
e 160 196
e 160 197
e 160 198
e 161 162
e 161 197
e 161 198
e 161 199
e 162 163
e 162 198
e 162 199
e 162 200
e 163 164
e 163 199
e 163 200
e 164 165
e 164 200
e 165 166
e 166 167
e 167 168
e 168 169
e 169 170
e 170 171
e 171 172
e 172 173
e 173 174
e 174 175
e 175 176
e 176 177
e 177 178
e 178 179
e 179 180
e 180 181
e 181 182
e 182 183
e 183 184
e 184 185
e 185 186
e 186 187
e 187 188
e 188 189
e 189 190
e 190 191
e 191 192
e 192 193
e 193 194
e 194 195
e 195 196
e 196 197
e 197 198
e 198 199
e 199 200
